1057
1026
1026
1026
1003
990
990
960
960
960
960
993
993
1073
1010
1073
1073
1073
1073
1014
1014
1007
1007
1014
994
994
998
873
873
1003
1003
1003
1064
964
964
964
987
987
996
967
967
967
967
953
926
936
936
936
936
936
982
976
969
954
964
964
964
964
964
923
977
998
998
998
998
1012
897
897
974
961
968
968
988
1013
1013
1013
1013
968
958
958
847
924
968
973
973
978
1053
1043
1043
993
993
993
993
977
949
977
1036
1055
921
921
921
921
849
931
912
912
931
931
918
918
918
945
932
932
932
994
995
995
923
923
964
997
947
951
951
966
966
966
966
966
957
968
972
996
968
980
906
906
906
906
906
906
906
996
974
974
974
974
974
976
976
976
976
963
963
964
950
997
984
1002
977
977
955
955
971
974
1004
952
951
951
951
951
951
949
967
1022
1022
1022
982
853
853
983
983
950
950
896
896
940
940
940
933
908
861
861
861
808
808
808
861
912
